0
0
16
0
0
25
0
0
17
0
12
17
0
0
15
0
11
20
0
0
0
26
0
0
0
0
0
0
0
0
0
5
8
23
6
0
0
26
15
0
0
0
12
11
11
24
10
18
23
11
21
11
6
0
19
7
18
17
0
6
0
11
0
8
0
0
31
11
0
16
0
10
16
20
19
8
27
7
0
0
0
0
12
59
13
0
0
0
13
22
13
21
0
0
7
0
0
0
34
0
